n_students = 160;
n_topics = 87;
single_topics_ids = {1,3,7,30,31,38,42,22,25,39,77};
student_weights = array2d(Student, Preference, [0, 0, 0, 0, 0, 0, 
10, 2, 1, 1, 0, 0, 
10, 10, 10, 0, 0, 0, 
10, 9, 7, 0, 0, 0, 
10, 10, 0, 0, 0, 0, 
10, 8, 6, 4, 2, 0, 
10, 9, 9, 1, 1, 0, 
10, 0, 0, 0, 0, 0, 
10, 8, 4, 0, 0, 0, 
0, 0, 0, 0, 0, 0, 
8, 10, 4, 8, 0, 0, 
10, 10, 0, 0, 0, 0, 
5, 10, 10, 5, 0, 0, 
10, 9, 9, 0, 0, 0, 
0, 0, 0, 0, 0, 0, 
10, 8, 6, 3, 2, 1, 
10, 10, 10, 0, 0, 0, 
10, 10, 10, 0, 0, 0, 
10, 10, 8, 0, 0, 0, 
0, 0, 0, 0, 0, 0, 
10, 10, 10, 0, 0, 0, 
10, 6, 4, 6, 4, 0, 
10, 10, 10, 0, 0, 0, 
10, 9, 7, 4, 0, 0, 
10, 8, 8, 4, 0, 0, 
10, 10, 0, 0, 0, 0, 
0, 0, 0, 0, 0, 0, 
10, 9, 2, 1, 0, 0, 
10, 9, 8, 0, 0, 0, 
0, 0, 0, 0, 0, 0, 
0, 0, 0, 0, 0, 0, 
10, 10, 3, 7, 0, 0, 
10, 8, 4, 3, 3, 2, 
10, 8, 5, 4, 2, 1, 
10, 7, 10, 1, 0, 0, 
10, 10, 10, 0, 0, 0, 
10, 5, 3, 3, 2, 2, 
10, 10, 5, 5, 0, 0, 
10, 9, 9, 0, 0, 0, 
10, 5, 5, 5, 0, 0, 
0, 0, 0, 0, 0, 0, 
0, 0, 0, 0, 0, 0, 
0, 0, 0, 0, 0, 0, 
10, 10, 10, 0, 0, 0, 
0, 0, 0, 0, 0, 0, 
10, 10, 10, 0, 0, 0, 
10, 8, 6, 0, 0, 0, 
10, 10, 10, 0, 0, 0, 
0, 0, 0, 0, 0, 0, 
10, 10, 6, 3, 1, 0, 
10, 8, 4, 4, 1, 0, 
10, 8, 6, 3, 3, 0, 
2, 2, 2, 10, 10, 1, 
10, 8, 6, 4, 2, 0, 
10, 9, 5, 5, 0, 0, 
10, 4, 8, 3, 5, 0, 
10, 10, 9, 1, 0, 0, 
0, 0, 0, 0, 0, 0, 
10, 10, 2, 3, 2, 3, 
0, 0, 0, 0, 0, 0, 
10, 10, 10, 0, 0, 0, 
0, 0, 0, 0, 0, 0, 
0, 0, 0, 0, 0, 0, 
10, 10, 8, 0, 0, 0, 
0, 0, 0, 0, 0, 0, 
10, 10, 10, 0, 0, 0, 
0, 0, 0, 0, 0, 0, 
0, 0, 0, 0, 0, 0, 
10, 9, 8, 3, 0, 0, 
0, 0, 0, 0, 0, 0, 
10, 10, 8, 0, 0, 0, 
10, 0, 0, 0, 0, 0, 
10, 9, 0, 0, 0, 0, 
10, 8, 6, 6, 0, 0, 
10, 8, 6, 0, 0, 0, 
10, 8, 6, 5, 1, 0, 
0, 0, 0, 0, 0, 0, 
0, 0, 0, 0, 0, 0, 
10, 10, 5, 5, 0, 0, 
10, 10, 10, 0, 0, 0, 
0, 0, 0, 0, 0, 0, 
0, 0, 0, 0, 0, 0, 
10, 0, 0, 0, 0, 0, 
5, 3, 4, 5, 3, 0, 
10, 10, 10, 0, 0, 0, 
10, 0, 0, 0, 0, 0, 
0, 0, 0, 0, 0, 0, 
0, 0, 0, 0, 0, 0, 
0, 0, 0, 0, 0, 0, 
0, 0, 0, 0, 0, 0, 
10, 10, 10, 0, 0, 0, 
10, 0, 0, 0, 0, 0, 
10, 0, 0, 0, 0, 0, 
5, 10, 1, 8, 5, 1, 
10, 10, 10, 0, 0, 0, 
0, 0, 0, 0, 0, 0, 
10, 3, 4, 10, 3, 0, 
10, 10, 0, 0, 0, 0, 
10, 10, 10, 0, 0, 0, 
0, 0, 0, 0, 0, 0, 
0, 0, 0, 0, 0, 0, 
0, 0, 0, 0, 0, 0, 
0, 0, 0, 0, 0, 0, 
0, 0, 0, 0, 0, 0, 
10, 0, 0, 0, 0, 0, 
10, 8, 8, 0, 0, 0, 
0, 0, 0, 0, 0, 0, 
0, 0, 0, 0, 0, 0, 
10, 10, 7, 2, 1, 0, 
10, 10, 0, 0, 0, 0, 
0, 0, 0, 0, 0, 0, 
10, 0, 10, 0, 0, 0, 
10, 10, 10, 0, 0, 0, 
10, 10, 9, 1, 0, 0, 
10, 10, 3, 5, 1, 1, 
0, 0, 0, 0, 0, 0, 
10, 8, 5, 4, 2, 1, 
10, 10, 10, 0, 0, 0, 
0, 0, 0, 0, 0, 0, 
0, 0, 0, 0, 0, 0, 
10, 10, 6, 4, 0, 0, 
10, 10, 10, 0, 0, 0, 
0, 0, 0, 0, 0, 0, 
0, 0, 0, 0, 0, 0, 
10, 8, 8, 4, 0, 0, 
10, 10, 8, 0, 0, 0, 
7, 8, 7, 8, 0, 0, 
0, 0, 0, 0, 0, 0, 
10, 8, 8, 0, 0, 0, 
10, 10, 10, 0, 0, 0, 
10, 10, 10, 0, 0, 0, 
0, 0, 0, 0, 0, 0, 
10, 10, 4, 4, 1, 1, 
10, 9, 0, 0, 0, 0, 
0, 0, 0, 0, 0, 0, 
0, 0, 0, 0, 0, 0, 
10, 10, 10, 0, 0, 0, 
10, 10, 10, 0, 0, 0, 
10, 0, 0, 0, 0, 0, 
10, 0, 0, 0, 0, 0, 
10, 10, 10, 0, 0, 0, 
0, 0, 0, 0, 0, 0, 
10, 10, 0, 0, 0, 0, 
5, 1, 10, 9, 5, 0, 
0, 0, 0, 0, 0, 0, 
0, 0, 0, 0, 0, 0, 
0, 0, 0, 0, 0, 0, 
10, 10, 10, 0, 0, 0, 
10, 10, 0, 0, 0, 0, 
10, 10, 9, 1, 0, 0, 
10, 10, 0, 0, 0, 0, 
10, 10, 6, 0, 0, 0, 
10, 0, 0, 0, 0, 0, 
10, 10, 10, 0, 0, 0, 
0, 0, 0, 0, 0, 0, 
10, 0, 0, 0, 0, 0, 
10, 10, 6, 4, 0, 0, 
10, 6, 5, 4, 0, 0, 
10, 8, 8, 4, 0, 0, 
10, 9, 6, 5, 0, 0, 
]);
student_preferences = array2d(Student, Preference, [0, 0, 0, 0, 0, 0, 
58, 33, 23, 26, 0, 0, 
56, 21, 85, 0, 0, 0, 
51, 53, 65, 0, 0, 0, 
53, 51, 8, 0, 0, 0, 
48, 47, 36, 60, 28, 0, 
33, 36, 34, 35, 49, 0, 
5, 0, 0, 0, 0, 0, 
61, 9, 70, 0, 0, 0, 
77, 0, 0, 0, 0, 0, 
57, 46, 62, 67, 0, 0, 
72, 53, 0, 0, 0, 0, 
71, 9, 65, 11, 0, 0, 
2, 45, 76, 0, 0, 0, 
0, 0, 0, 0, 0, 0, 
74, 7, 28, 6, 4, 50, 
27, 6, 23, 0, 0, 0, 
35, 14, 34, 0, 0, 0, 
69, 70, 46, 0, 0, 0, 
-1, 0, 0, 0, 0, 0, 
6, 71, 32, 0, 0, 0, 
41, 44, 45, 58, 65, 0, 
51, 62, 54, 0, 0, 0, 
64, 65, 63, 59, 0, 0, 
45, 49, 44, 66, 0, 0, 
14, 44, 0, 0, 0, 0, 
0, 0, 0, 0, 0, 0, 
69, 70, 46, 59, 0, 0, 
10, 12, 8, 0, 0, 0, 
0, 0, 0, 0, 0, 0, 
-1, 0, 0, 0, 0, 0, 
5, 11, 51, 54, 0, 0, 
42, 43, 67, 66, 57, 75, 
62, 29, 26, 27, 46, 69, 
74, 43, 70, 17, 0, 0, 
75, 38, 37, 0, 0, 0, 
45, 12, 8, 34, 35, 33, 
69, 19, 14, 5, 0, 0, 
44, 45, 33, 0, 0, 0, 
8, 10, 12, 11, 0, 0, 
16, 0, 0, 0, 0, 0, 
39, 0, 0, 0, 0, 0, 
-1, 0, 0, 0, 0, 0, 
41, 4, 6, 0, 0, 0, 
16, 0, 0, 0, 0, 0, 
5, 26, 4, 0, 0, 0, 
1, 69, 75, 0, 0, 0, 
10, 39, 37, 0, 0, 0, 
0, 0, 0, 0, 0, 0, 
36, 33, 40, 82, 6, 0, 
83, 9, 82, 73, 79, 0, 
30, 31, 3, 1, 42, 0, 
8, 32, 37, 71, 9, 73, 
48, 47, 36, 60, 28, 0, 
54, 71, 60, 24, 0, 0, 
14, 68, 35, 33, 56, 0, 
31, 30, 32, 24, 0, 0, 
-1, 0, 0, 0, 0, 0, 
66, 67, 35, 33, 34, 54, 
-1, 0, 0, 0, 0, 0, 
31, 30, 21, 0, 0, 0, 
0, 0, 0, 0, 0, 0, 
0, 0, 0, 0, 0, 0, 
29, 26, 23, 0, 0, 0, 
-1, 0, 0, 0, 0, 0, 
21, 20, 36, 0, 0, 0, 
-1, 0, 0, 0, 0, 0, 
18, 0, 0, 0, 0, 0, 
56, 33, 17, 40, 0, 0, 
0, 0, 0, 0, 0, 0, 
37, 36, 50, 0, 0, 0, 
42, 0, 0, 0, 0, 0, 
51, 53, 0, 0, 0, 0, 
10, 12, 11, 49, 0, 0, 
56, 37, 44, 0, 0, 0, 
37, 36, 34, 40, 59, 0, 
-1, 0, 0, 0, 0, 0, 
0, 0, 0, 0, 0, 0, 
37, 69, 19, 26, 0, 0, 
51, 19, 21, 0, 0, 0, 
-1, 0, 0, 0, 0, 0, 
55, 0, 0, 0, 0, 0, 
74, 0, 0, 0, 0, 0, 
20, 38, 26, 21, 51, 0, 
17, 40, 51, 0, 0, 0, 
1, 0, 0, 0, 0, 0, 
0, 0, 0, 0, 0, 0, 
-1, 0, 0, 0, 0, 0, 
-1, 0, 0, 0, 0, 0, 
-1, 0, 0, 0, 0, 0, 
70, 37, 35, 0, 0, 0, 
7, 0, 0, 0, 0, 0, 
9, 0, 0, 0, 0, 0, 
51, 10, 56, 11, 8, 83, 
4, 5, 61, 0, 0, 0, 
0, 0, 0, 0, 0, 0, 
29, 26, 27, 21, 62, 0, 
80, 79, 0, 0, 0, 0, 
70, 37, 34, 0, 0, 0, 
-1, 0, 0, 0, 0, 0, 
0, 0, 0, 0, 0, 0, 
0, 0, 0, 0, 0, 0, 
55, 0, 0, 0, 0, 0, 
-1, 0, 0, 0, 0, 0, 
58, 0, 0, 0, 0, 0, 
40, 35, 5, 0, 0, 0, 
-1, 0, 0, 0, 0, 0, 
-1, 0, 0, 0, 0, 0, 
23, 27, 26, 29, 7, 0, 
53, 68, 0, 0, 0, 0, 
-1, 0, 0, 0, 0, 0, 
68, 0, 50, 0, 0, 0, 
41, 84, 72, 0, 0, 0, 
38, 37, 64, 65, 0, 0, 
23, 27, 20, 87, 26, 19, 
0, 0, 0, 0, 0, 0, 
62, 29, 26, 27, 46, 69, 
5, 64, 71, 0, 0, 0, 
-1, 0, 0, 0, 0, 0, 
-1, 0, 0, 0, 0, 0, 
20, 19, 78, 3, 0, 0, 
57, 66, 67, 0, 0, 0, 
18, 0, 0, 0, 0, 0, 
-1, 0, 0, 0, 0, 0, 
45, 49, 59, 66, 0, 0, 
54, 42, 4, 0, 0, 0, 
56, 72, 24, 32, 0, 0, 
25, 0, 0, 0, 0, 0, 
74, 28, 43, 0, 0, 0, 
33, 29, 17, 0, 0, 0, 
3, 30, 31, 0, 0, 0, 
0, 0, 0, 0, 0, 0, 
8, 12, 10, 11, 40, 14, 
28, 61, 0, 0, 0, 0, 
0, 0, 0, 0, 0, 0, 
-1, 0, 0, 0, 0, 0, 
51, 62, 54, 0, 0, 0, 
5, 71, 76, 0, 0, 0, 
74, 0, 0, 0, 0, 0, 
43, 0, 0, 0, 0, 0, 
35, 34, 36, 0, 0, 0, 
-1, 0, 0, 0, 0, 0, 
15, 86, 0, 0, 0, 0, 
56, 52, 34, 68, 71, 0, 
-1, 0, 0, 0, 0, 0, 
0, 0, 0, 0, 0, 0, 
-1, 0, 0, 0, 0, 0, 
60, 61, 6, 0, 0, 0, 
53, 68, 0, 0, 0, 0, 
54, 73, 82, 81, 0, 0, 
19, 20, 0, 0, 0, 0, 
82, 8, 58, 0, 0, 0, 
22, 0, 0, 0, 0, 0, 
63, 35, 34, 0, 0, 0, 
-1, 0, 0, 0, 0, 0, 
76, 0, 0, 0, 0, 0, 
45, 44, 49, 68, 0, 0, 
19, 5, 62, 50, 0, 0, 
68, 2, 85, 8, 0, 0, 
13, 4, 62, 17, 0, 0, 
]);
topics_fixed = [0, 0, 0, 0, 0, 0, 0, 5, 0, 77, 0, 0, 0, 0, 0, 0, 0, 0, 0, -1, 0, 0, 0, 0, 0, 0, 0, 0, 0, 0, -1, 0, 0, 0, 0, 0, 0, 0, 0, 0, 16, 39, -1, 0, 16, 0, 0, 0, 0, 0, 0, 0, 0, 0, 0, 0, 0, -1, 0, -1, 0, 0, 0, 0, -1, 0, -1, 18, 0, 0, 0, 0, 0, 0, 0, 0, -1, 0, 0, 0, -1, 55, 0, 0, 0, 0, 0, -1, -1, -1, 0, 7, 0, 0, 0, 0, 0, 0, 0, -1, 0, 0, 55, -1, 0, 0, -1, -1, 0, 0, -1, 0, 0, 38, 0, 0, 0, 0, -1, -1, 0, 0, 18, -1, 0, 0, 0, 25, 0, 0, 0, 0, 0, 0, 0, -1, 0, 0, 0, 0, 0, -1, 15, 56, -1, 0, -1, 0, 0, 0, 0, 0, 22, 0, -1, 0, 0, 0, 0, 0];
